p cnf 10 15
-8 5 -2 6 4 0
-3 5 -9 6 4 0
7 -5 -1 6 2 0
1 5 -7 4 10 0
1 9 -4 2 10 0
-5 3 -7 -2 -8 0
-6 7 -8 10 -5 0
5 -6 -8 -10 -4 0
-3 6 -7 -10 -8 0
-6 10 3 9 -8 0
-9 -6 -8 1 -3 0
8 -3 1 -10 -4 0
4 -5 -1 6 8 0
-10 -7 -2 4 9 0
-2 -10 8 3 -5 0
